
Gurobi 6.5.2 (win64) logging started 07/22/16 21:11:46


Gurobi 6.5.2 (win64) logging started 07/22/16 21:11:46

Optimize a model with 385 rows, 140 columns and 1040 nonzeros
Coefficient statistics:
  Matrix range    [1e+00, 4e+02]
  Objective range [2e+00, 4e+02]
  Bounds range    [1e+00, 1e+00]
  RHS range       [1e+00, 1e+03]
Presolve removed 299 rows and 14 columns
Presolve time: 0.00s
Presolved: 86 rows, 126 columns, 492 nonzeros
Variable types: 0 continuous, 126 integer (126 binary)

Root relaxation: objective 1.389000e+03, 33 iterations, 0.00 seconds

    Nodes    |    Current Node    |     Objective Bounds      |     Work
 Expl Unexpl |  Obj  Depth IntInf | Incumbent    BestBd   Gap | It/Node Time

*    0     0               0    1389.0000000 1389.00000  0.00%     -    0s

Explored 0 nodes (33 simplex iterations) in 0.00 seconds
Thread count was 8 (of 8 available processors)

Optimal solution found (tolerance 1.00e-04)
Best objective 1.389000000000e+03, best bound 1.389000000000e+03, gap 0.0%

Wrote requested result file 'H1\instance7\\Results7SG_Sol4.lp'

